benchmarks_vrp/CMT2/fixed_c/CMT2_4.vrp
NAME: CMT2_4
TYPE: CVRP
COMMENT: 835.26 - Cluster Nr.4
DIMENSION: 8
CAPACITY: 140
EDGE_WEIGHT_TYPE: EUC_2D
NODE_COORD_TYPE: TWOD_COORDS
NODE_COORD_SECTION: 
5 21 45
4 40 40
6 7 43
8 12 38
7 20 30
3 21 36
2 21 48
1 29 39
DEPOT_SECTION: 
4
-1
DEMAND_SECTION: 
3 19
6 27
7 11
8 5
5 11
4 0
2 17
1 12
EOF
