benchmarks_vrp/CMT2/fixed_c/CMT2_4.tour
NAME: CMT2_4 solution
TYPE: TOUR
TOUR_SECTION:
4 1 5 2 6 8 7 3 -1
-1
EOF